c Generated map
c Size: 8 * 8, weights in range: 1 to 10, walls: True, with ratio 0.1
c dim 6 of 9
c
p sp 64 92
c graph contains 64 nodes and 92 arcs
c
a 1 9 2
a 9 1 2
a 1 2 1
a 2 1 1
a 2 10 10
a 10 2 10
a 2 3 7
a 3 2 7
a 3 11 6
a 11 3 6
a 3 4 1
a 4 3 1
a 4 12 10
a 12 4 10
a 4 5 7
a 5 4 7
a 5 13 6
a 13 5 6
a 5 6 3
a 6 5 3
a 6 14 4
a 14 6 4
a 6 7 9
a 7 6 9
a 7 15 6
a 15 7 6
a 7 8 7
a 8 7 7
a 8 16 1
a 16 8 1
a 9 17 8
a 17 9 8
a 9 10 9
a 10 9 9
a 10 18 10
a 18 10 10
a 10 11 6
a 11 10 6
a 11 19 1
a 19 11 1
a 11 12 2
a 12 11 2
a 12 20 4
a 20 12 4
a 12 13 10
a 13 12 10
a 13 21 5
a 21 13 5
a 13 14 7
a 14 13 7
a 14 22 5
a 22 14 5
a 14 15 1
a 15 14 1
a 15 23 10
a 23 15 10
a 15 16 8
a 16 15 8
a 16 24 6
a 24 16 6
a 17 25 8
a 25 17 8
a 17 18 2
a 18 17 2
a 18 26 10
a 26 18 10
a 18 19 7
a 19 18 7
a 19 27 7
a 27 19 7
a 19 20 4
a 20 19 4
a 20 28 1
a 28 20 1
a 20 21 5
a 21 20 5
a 21 29 9
a 29 21 9
a 21 22 10
a 22 21 10
a 22 30 5
a 30 22 5
a 22 23 7
a 23 22 7
a 23 24 10
a 24 23 10
a 25 33 7
a 33 25 7
a 25 26 1
a 26 25 1
a 26 34 1
a 34 26 1
a 26 27 7
a 27 26 7
a 27 35 10
a 35 27 10
a 27 28 7
a 28 27 7
a 28 36 8
a 36 28 8
a 28 29 9
a 29 28 9
a 29 37 3
a 37 29 3
a 29 30 3
a 30 29 3
a 30 38 10
a 38 30 10
a 33 34 2
a 34 33 2
a 34 42 8
a 42 34 8
a 34 35 10
a 35 34 10
a 35 43 9
a 43 35 9
a 35 36 5
a 36 35 5
a 36 37 1
a 37 36 1
a 37 45 4
a 45 37 4
a 37 38 5
a 38 37 5
a 38 46 8
a 46 38 8
a 38 39 10
a 39 38 10
a 39 47 2
a 47 39 2
a 39 40 4
a 40 39 4
a 40 48 4
a 48 40 4
a 42 50 1
a 50 42 1
a 42 43 5
a 43 42 5
a 43 51 7
a 51 43 7
a 45 53 5
a 53 45 5
a 45 46 1
a 46 45 1
a 46 47 10
a 47 46 10
a 47 55 8
a 55 47 8
a 47 48 9
a 48 47 9
a 48 56 8
a 56 48 8
a 49 57 1
a 57 49 1
a 49 50 3
a 50 49 3
a 50 58 1
a 58 50 1
a 50 51 7
a 51 50 7
a 51 59 8
a 59 51 8
a 51 52 6
a 52 51 6
a 52 53 3
a 53 52 3
a 53 61 9
a 61 53 9
a 55 63 10
a 63 55 10
a 55 56 8
a 56 55 8
a 56 64 8
a 64 56 8
a 57 58 10
a 58 57 10
a 58 59 4
a 59 58 4
a 61 62 7
a 62 61 7
a 62 63 6
a 63 62 6
a 63 64 7
a 64 63 7
